22

C      -0.521586710406073      0.040371728989557     -0.526287644225321
C       0.837734272156104      0.178691997665274     -1.122686804046044
O       1.472528441122865      1.205303195274400     -1.144000319790592
O       1.290137765551688     -0.959485162212775     -1.680991952624384
H       2.189725238304728     -0.770103905456296     -1.983005637943513
N       1.989803475259140     -0.514898026768685      1.601154340024572
C       3.143180119397216      0.383382033707698      1.652505540928287
H       4.022181371097142     -0.137783518108579      1.259401364924680
H       2.952676094225498      1.240617830510029      1.000583787004364
H       3.390040173793376      0.757296783008722      2.658678072948476
H       2.146640729183690     -1.335164032170353      2.178130797662023
H       1.161531998619722     -0.051917841123023      1.963902732917950
C      -1.169733170358843      1.195744620239161     -0.097643451533647
C      -2.432448778014565      1.110520579277756      0.472126237212094
C      -3.044685038959086     -0.129855749551239      0.618793693311019
C      -2.395596466677209     -1.284064716910098      0.194808512186315
C      -1.135077798059604     -1.201693476798746     -0.380934407994364
H      -0.669587085906066      2.151209195929614     -0.219457255411803
H      -2.940693681727682      2.010977049088248      0.800660821203827
H      -4.031772618807159     -0.196971287529714      1.066057544660872
H      -2.873482890628451     -2.251401848744774      0.312465503812134
H      -0.617906388272615     -2.094484945751689     -0.710539882847092
22

C      -0.625279163480141      0.195413612691242      0.178324290610882
C       0.862723670285155      0.292204377081268      0.001686777410466
O       1.352783731997980      0.847982056390632     -0.977958481866715
O       2.913084101477625     -1.175718760148219     -2.233711812674107
H       2.445557433290178     -0.366617880246017     -1.968792159795997
N       1.621316708112586     -0.252889697374624      0.973595450036864
C       3.074779907549928     -0.225222113870776      0.915921314846960
H       3.445554854106176     -0.881035284818923      0.124602615641593
H       3.423027626693415      0.791689327629976      0.718248087313729
H       3.465858178555409     -0.558824999380813      1.877914732617956
H       2.578532356132767     -1.389046697559531     -3.108298742922461
H       1.168273161811481     -0.600685623728221      1.800161658896715
C      -1.413992058746012      1.193715614661727     -0.388784992929746
C      -2.794979189147734      1.145712545370104     -0.264137683430986
C      -3.397696755938673      0.088993950809884      0.411008495538894
C      -2.616040604238147     -0.919877787988028      0.960342484193534
C      -1.232141066347207     -0.865477013601211      0.847914669621713
H      -0.925621458643042      1.998068900209398     -0.928728226785553
H      -3.404800560103437      1.931173485276061     -0.699493599253932
H      -4.478756925303643      0.047219964778900      0.500869216968968
H      -3.084115646732794     -1.756142034357310      1.469957165682321
H      -0.632834910492429     -1.676765906335521      1.251635573807216
