22
-516.653302209757
C	-0.4423589146	0.0970976424	-0.1532532281	
C	1.0359718109	0.2879479469	-0.3691387150	
O	1.5272723112	1.2829047118	-0.8563034055	
O	1.4693639397	-1.2779459195	-1.3469024084	
H	1.9495284179	-0.9424992134	-2.1115137068	
N	1.8862077489	-0.4401282567	0.7225382498	
C	3.0249075036	0.3367103671	1.2200998804	
H	3.6067693141	0.6809512283	0.3669758578	
H	2.6817794772	1.2092050424	1.7799441632	
H	3.6400520431	-0.2991116853	1.8592805158	
H	2.0718236500	-1.2016373549	-0.1356955374	
H	1.2965787421	-0.7968664046	1.4685141389	
C	-1.2349910399	1.2400418988	-0.1719016286	
C	-2.6006585878	1.1451654520	0.0702391271	
C	-3.1758772532	-0.0915330068	0.3329212288	
C	-2.3849598279	-1.2367041164	0.3436774311	
C	-1.0217752628	-1.1455600721	0.0990225691	
H	-0.7664260512	2.1950724934	-0.3857448271	
H	-3.2158416754	2.0394773982	0.0517583718	
H	-4.2427231934	-0.1669218724	0.5199131582	
H	-2.8359056658	-2.2068852068	0.5280667876	
H	-0.4141729377	-2.0433811038	0.0519806636	
