37

Fe     -0.468475000000000      0.310456000000000     -0.185058000000000
P      -1.637832000000000     -0.758430000000000     -1.737619000000000
P       0.619081000000000      1.973257000000000     -1.190546000000000
N      -1.058948000000000     -1.136877000000000      1.008538000000000
N       0.544051000000000      0.832463000000000      1.389514000000000
H      -1.029439000000000     -1.607467000000000      3.092928000000000
H       0.413884000000000      0.571602000000000      3.505325000000000
H      -1.790185000000000     -0.038714000000000      2.675620000000000
C      -0.965444000000000     -0.733878000000000      2.412834000000000
H       1.190213000000000     -0.775679000000000      2.625262000000000
C       0.379750000000000     -0.012515000000000      2.564141000000000
H      -2.479486000000000     -2.677654000000000      1.310756000000000
H       1.945202000000000      2.141470000000000      2.244832000000000
C      -2.040068000000000     -1.984970000000000      0.572608000000000
C       1.396791000000000      1.868316000000000      1.326312000000000
H      -3.136417000000000     -2.776641000000000     -1.121559000000000
C      -2.441013000000000     -2.022727000000000     -0.742281000000000
H       0.474788000000000     -1.635660000000000      0.211080000000000
H       1.456483000000000      1.750694000000000     -2.328386000000000
H      -0.118696000000000      3.054422000000000     -1.762299000000000
H      -0.965111000000000     -1.418692000000000     -2.810995000000000
H      -2.655124000000000     -0.137012000000000     -2.517662000000000
C      -1.781898000000000      1.365680000000000      0.134766000000000
O      -2.669764000000000      2.091753000000000      0.358054000000000
O       0.997757000000000     -1.213382000000000     -0.536137000000000
C       2.404117000000000     -1.165369000000000     -0.170226000000000
C       2.816720000000000     -2.545902000000000      0.339136000000000
C       3.190131000000000     -0.721815000000000     -1.396125000000000
H       2.524620000000000     -0.415953000000000      0.633511000000000
H       2.210728000000000     -2.838300000000000      1.215624000000000
H       2.680547000000000     -3.307184000000000     -0.449046000000000
H       3.876807000000000     -2.542416000000000      0.646529000000000
H       2.899420000000000      0.295507000000000     -1.699259000000000
H       4.269283000000000     -0.710900000000000     -1.166441000000000
H       3.013058000000000     -1.411799000000000     -2.239593000000000
C       1.607972000000000      2.590320000000000      0.156480000000000
H       2.259025000000000      3.467192000000000      0.120186000000000
37

Fe     -0.349696000000000     -0.507952000000000     -0.226251000000000
P       1.164825000000000     -1.411166000000000     -1.508936000000000
P      -1.739418000000000      0.577585000000000     -1.566452000000000
N       0.820364000000000     -1.015066000000000      1.239388000000000
N      -1.215013000000000      0.541814000000000      1.190996000000000
H       0.938504000000000     -0.852203000000000      3.368640000000000
H      -1.389478000000000      0.446430000000000      3.316255000000000
H      -0.491081000000000     -1.707151000000000      2.688802000000000
C       0.188912000000000     -0.846638000000000      2.555701000000000
H       0.056468000000000      1.308936000000000      2.719041000000000
C      -0.626494000000000      0.456035000000000      2.511255000000000
H       2.688205000000000     -1.572710000000000      1.961490000000000
H      -2.745870000000000      1.872632000000000      1.731934000000000
C       2.045415000000000     -1.383931000000000      1.084184000000000
C      -2.259916000000000      1.331260000000000      0.901658000000000
H       3.120781000000000     -2.547593000000000     -0.376249000000000
C       2.599596000000000     -1.574702000000000     -0.298299000000000
H       3.340478000000000     -0.786931000000000     -0.520140000000000
H      -1.120373000000000      1.455000000000000     -2.505222000000000
H      -2.627897000000000     -0.082023000000000     -2.469483000000000
H       1.731627000000000     -0.716229000000000     -2.601084000000000
H       1.163291000000000     -2.731157000000000     -2.067589000000000
C      -1.446373000000000     -1.856105000000000     -0.067456000000000
O      -2.176280000000000     -2.764649000000000      0.017373000000000
O       0.986925000000000      0.872659000000000     -0.744460000000000
C       1.435599000000000      1.906009000000000      0.096710000000000
C       2.925759000000000      2.161575000000000     -0.186854000000000
C       0.608530000000000      3.181452000000000     -0.128706000000000
H       1.347643000000000      1.623418000000000      1.171352000000000
H       3.538167000000000      1.280519000000000      0.076742000000000
H       3.066893000000000      2.368494000000000     -1.263090000000000
H       3.307303000000000      3.024122000000000      0.389778000000000
H      -0.464349000000000      2.970152000000000      0.006952000000000
H       0.903857000000000      3.989518000000000      0.567281000000000
H       0.756412000000000      3.540938000000000     -1.163677000000000
C      -2.727363000000000      1.486737000000000     -0.396879000000000
H      -3.594188000000000      2.104838000000000     -0.642283000000000
