12

C      -0.101069770557209     -0.669285393034753     -0.091990048535588
C      -1.133347612129311      0.426649956880948      0.259037980167348
O      -2.327243777773567      0.108424358881423     -0.243435480976410
H      -0.469911052541614     -1.613918162808141      0.318670292769333
H      -0.063705516545033     -0.762491218974198     -1.190326853225556
H      -1.081962258588645      0.533677548321687      1.387459795764885
H      -0.701307305276429      1.409290455051607     -0.113351490535465
O       1.246487441371839     -0.531327075689097      0.411284631208322
C       1.975944139606316      0.472840358972308     -0.231467517560776
H       1.687953537907759      1.482896855410365      0.095408764227427
H       1.841823316116076      0.427696301071729     -1.326095381931843
H       3.039098008097576      0.317702315420281     -0.004848250754971
12

C      -0.898318124518037     -0.550871990519725     -0.009151036891578
C      -1.434640448912751      0.728883501064438      0.413012920379208
O      -2.228929645162640     -0.128557021529131     -0.407320407443033
H      -0.873868056855119     -1.370365131097000      0.702143548570579
H      -0.132034876319989     -0.586176413879168     -0.772838277128832
H      -1.793629058873003      0.853915215147481      1.434689607473564
H      -1.072318461607866      1.635880078526179     -0.067767073169693
O       1.836862853616148     -0.627875213175185      0.381317710423689
C       2.258113439623739      0.476988528483768     -0.238554305033788
H       2.605135357089485      1.319424476960728      0.433733518684539
H       1.483992380433047      0.991589049647013     -0.898278082908401
H       3.127920487699695      0.341915049872871     -0.949000950137396
