12
-268.905291981035
C	-0.5334279063	-0.5396166823	-0.1241368156	
C	-1.2345178683	0.6170617427	0.3861134116	
O	-2.2026833539	-0.0956345347	-0.3239052205	
H	-0.5989026022	-1.4682042276	0.4171896569	
H	-0.1727195665	-0.5223372160	-1.1409813852	
H	-1.3717128848	0.6771044537	1.4762653616	
H	-0.9536807616	1.5996228774	-0.0222802489	
O	1.4439930205	-0.5629448632	0.4222208052	
C	2.1032930107	0.4166262966	-0.2413245974	
H	2.1218481149	1.4102549020	0.2804618213	
H	1.6756779799	0.6494033702	-1.2572317236	
H	3.1779577649	0.1800387796	-0.4428408142	
