21

C       0.541056254076492      0.244278160458074      0.490167402884106
C      -0.799221328045847      0.577463318969440      1.039011495033701
O      -1.257934342283119      1.685230257976992      1.137764867942560
O      -1.505136326306221     -0.514245658466358      1.435368040171448
H      -2.334683323276263     -0.172825523651657      1.801490212312289
O      -2.099688311831067     -1.223026476077375     -1.486674673632561
C      -3.126110996951749     -0.252729902179367     -1.607073771965507
H      -2.865866174853064      0.691883040975883     -1.112152466826029
H      -3.256700926845726     -0.055272753046190     -2.671459795870178
H      -4.081488736383947     -0.613654155628757     -1.205906904049572
H      -1.938005470892680     -1.372652301872714     -0.550145418422324
C       1.035788420989927     -1.058582465410127      0.490512735469478
C       2.294322436050125     -1.317077190825812     -0.034552954376518
C       3.055831890666224     -0.278986519510982     -0.559640864018457
C       2.561032628610154      1.021141227004296     -0.559525648009079
C       1.304760429136282      1.284507894454640     -0.035100920847718
H       0.437568863041695     -1.863981511250089      0.901858595685424
H       2.681334355405936     -2.330717389926320     -0.035824810141954
H       4.039767979658490     -0.483293725514114     -0.971566155343143
H       3.156264147228877      1.829408907973151     -0.970136548991748
H       0.897720408038378      2.289981451385538     -0.026424696077466
21

C       0.449212730565370      0.200484664003359     -0.096335110218417
C      -1.007212164205787      0.506782030854320     -0.156615482073048
O      -1.517263153173195      1.504172911965794      0.296550348080521
O      -1.653435546145354     -0.987197466389892      2.270493679847279
H      -1.744579356237083     -0.028470827900634      2.318731920498141
O      -1.688745498700928     -0.439562701471782     -0.828920587825381
C      -3.050097225987108     -0.146118099013223     -1.159536117953681
H      -3.482011203368081      0.555933604073808     -0.445765893229128
H      -3.083087874130559      0.285273090219413     -2.163291821521530
H      -3.587740743059242     -1.094447288679809     -1.149537753120095
H      -2.377157896802764     -1.274364526474905      1.706412876925979
C       0.932563653943579     -1.105472433704284     -0.127177499870967
C       2.301516505666579     -1.328746134620639     -0.146738385101885
C       3.183990683097717     -0.252712578466363     -0.159039892987005
C       2.700023946926084      1.049385922490310     -0.114926207688899
C       1.331311338577846      1.276616956845051     -0.067455112240828
H       0.236039644649309     -1.936038252854897     -0.129254092673014
H       2.683410537645335     -2.344538630034180     -0.162170412631128
H       4.254553279699419     -0.430501232298057     -0.196619080043543
H       3.389466856232028      1.887803553986299     -0.118897448370035
H       0.931285111877883      2.284697316838936     -0.031125811979143
