21
-536.514513638732
C	0.4418203199	0.1476163420	0.1374465832	
C	-1.0075204936	0.4322267600	0.3676468319	
O	-1.5261674051	1.5078190479	0.4590615819	
O	-1.5113449211	-0.6645838735	1.5985673559	
H	-2.0859769699	-0.1105135250	2.1431788116	
O	-1.8583267608	-0.6885059578	-0.5773979024	
C	-2.9208126655	-0.1228637049	-1.3325096602	
H	-3.2004915950	0.8529996579	-0.9226563229	
H	-2.5960836401	-0.0048185351	-2.3692392280	
H	-3.7790700496	-0.7983614704	-1.2970813019	
H	-2.0491052736	-0.9973983407	0.5711419075	
C	0.9561975151	-1.1441323813	0.0633677650	
C	2.3115880581	-1.3312229576	-0.1607889261	
C	3.1546087906	-0.2332349455	-0.3114250281	
C	2.6396437336	1.0539568388	-0.2363209555	
C	1.2812873281	1.2457230632	-0.0112015969	
H	0.2981629450	-1.9971330085	0.1818985221	
H	2.7145822100	-2.3374711692	-0.2175478623	
H	4.2153442230	-0.3848130419	-0.4866636577	
H	3.2943355952	1.9118720377	-0.3525799568	
H	0.8579896469	2.2426438582	0.0516686658	
