15

C      -1.115512991021875      0.110718508491541      0.016603839339389
C       0.036942380061417     -0.696381833927753     -0.618538343140064
O       0.580862899307902     -0.365681117015910     -1.629925798131788
O       0.200630009872881     -1.861877183197615      0.012733848349084
F      -2.265708600064875     -0.312817093697060     -0.536682835760383
F      -0.984802741454858      1.407902929907707     -0.246390660172213
F      -1.219306509063153     -0.055759924672952      1.334043952756042
H       0.855144536094303     -2.366395271597022     -0.494049550048604
N       1.655587216706388      0.675554750603614      1.085340971938811
C       2.801552245292281      0.940553146836858      0.215488802252300
H       3.220640074790705     -0.007412741393835     -0.133332283169841
H       2.460624712130611      1.482851998524103     -0.669999492248877
H       3.607928227566445      1.515656500974875      0.690639072738284
H       1.931425312574483      0.152094323687237      1.908727151579453
H       1.245578188218751      1.544106441241281      1.410195020423088
15

C      -1.114060993765561      0.434846378829859      0.076516037018600
C       0.354131579918138      0.248235771048957     -0.377291559367621
O       0.577014526288395     -0.126088935801599     -1.511580463348414
O       0.769865476334865     -2.600229022692560      0.074762496911492
F      -1.867097414146900     -0.577404375812125     -0.346558030725888
F      -1.609430915475946      1.570276022791561     -0.431541279378225
F      -1.231061053489733      0.506613521822484      1.418316880587710
H       0.706589188451359     -2.215162959531582     -0.809280127994615
N       1.273034130392484      0.563898924224106      0.543055905398048
C       2.684109045302397      0.326363966885798      0.284259579544470
H       2.914332375920581     -0.741414101420340      0.351878493211157
H       2.927584464250281      0.677796197742236     -0.718760001795426
H       3.275479859951005      0.878911132822168      1.014825474233771
H       0.127496180171145     -3.316387140111194      0.091017579907265
H       0.964929022618169      0.707322317483003      1.490771510043544
