15
-622.666960799207
C	-1.0750759218	0.2246161679	0.0485960609	
C	0.3366923005	-0.1978562932	-0.4104155167	
O	0.6483210322	-0.1655409457	-1.5797169718	
O	0.3761318478	-1.8329447972	0.3262239182	
F	-2.0180227108	-0.4634462403	-0.5764460582	
F	-1.2409384435	1.5308524195	-0.2322124650	
F	-1.2483007973	0.0894550036	1.3775154908	
H	0.6259887458	-2.4146129345	-0.4022111167	
N	1.3915859016	0.1391659570	0.6541217419	
C	2.6167455202	0.7441115906	0.1198939079	
H	2.9796574852	0.1277395726	-0.7006211441	
H	2.4199857992	1.7486028947	-0.2605349619	
H	3.3645788555	0.7846621165	0.9130733409	
H	1.2866982100	-1.0759103203	0.8114282679	
H	0.9997770519	0.6615392379	1.4325785129	
