50
taken from source/r.qcin
O -2.985253 -0.382380 0.913413
C -2.507569 -0.689043 -0.188947
O -1.282795 -0.747222 -0.528805
C -3.492458 -1.076670 -1.321248
Rh 0.097621 -0.271428 0.934739
F -2.920775 -1.977623 -2.155615
C -3.944730 0.137853 -2.161055
F -4.598814 -1.646171 -0.775561
C -0.716386 4.523880 0.238491
C 0.581065 3.820516 -0.224012
C 0.836111 2.470812 0.509776
F 1.611690 4.653691 0.017282
F 0.494450 3.599025 -1.558248
O 1.836271 2.311504 1.188710
O -0.129134 1.635413 0.277255
O 1.502424 -0.525584 -0.546863
C 2.720329 -0.749847 -0.204401
O 3.196754 -0.787173 0.929866
C 3.598504 -1.115595 -1.425951
F 3.296739 -0.337462 -2.486605
F 3.311121 -2.415309 -1.746187
C 5.119992 -1.016827 -1.186615
O -1.860094 0.379000 3.214571
C -1.354232 0.060421 2.238914
C 1.450420 0.187677 2.291376
O 1.991678 0.337424 3.284107
C 0.512571 -2.646395 1.488834
C -0.439433 -2.781524 2.536847
C 0.220173 -3.227007 0.226793
C -1.656541 -3.408108 2.304086
H -0.196390 -2.410774 3.529279
C -0.993421 -3.857869 0.013178
H 0.951049 -3.154680 -0.571682
C -1.952661 -3.953084 1.041652
H -2.387558 -3.487128 3.103695
H -1.218283 -4.275585 -0.963614
H 1.543271 -2.395673 1.725764
C -3.291813 -4.585166 0.774436
H -3.954858 -3.854935 0.292394
H -3.204158 -5.441711 0.098094
H -3.776257 -4.914062 1.698375
F -4.800426 -0.256959 -3.111705
F -2.883568 0.712546 -2.738823
F -4.553047 1.034238 -1.373413
F 5.766707 -1.267944 -2.335999
F 5.521362 -1.906406 -0.272998
F 5.438883 0.218121 -0.777773
F -0.739595 5.785599 -0.204899
F -0.759682 4.537118 1.584511
F -1.798125 3.887003 -0.220800
50
taken from source/p.qcin
O 0.0089447173 3.2662058612 -1.0968630881
C 0.0778350193 2.9431547532 0.1260278328
O 0.2592558940 1.7438716348 0.6050403744
C -0.0449356803 4.0162182951 1.2259869642
Rh 0.4724933806 0.2233740428 -0.8030222554
F 1.0864767355 3.9342536665 2.0698957190
C -1.3124485621 3.8656530512 2.1048946491
F -0.0699247237 5.2922325537 0.6554169174
C -4.5122135527 -0.6354710612 -1.2369633006
C -3.4848909299 -1.7137202721 -0.8081540428
C -2.0200144911 -1.3059649863 -1.0719086152
F -3.7957597913 -2.8919839984 -1.4974574609
F -3.6495491779 -1.9542581750 0.5712989304
O -1.2830742654 -2.0970301723 -1.7622323364
O -1.6685332214 -0.1820777772 -0.5434961763
O 0.6453111631 -1.1939297390 0.8651030171
C 1.5528619174 -1.8854960996 1.3889749246
O 2.8621170126 -1.6580663519 1.3664720159
C 1.1312713190 -3.1485315504 2.1599778611
F 0.4413583447 -2.7485265170 3.3178889599
F 2.2490674274 -3.8941161580 2.5374231404
C 0.2012005192 -4.0629405826 1.3117688452
O 0.2830585345 1.8126669424 -3.3596652330
C 0.3062615204 1.4220284830 -2.2501686286
C 0.5978293231 -1.2957033115 -2.0169638011
O 1.1173552951 -2.0178483731 -2.7924735739
C 2.5048219697 0.5786022036 -0.8602227016
C 3.3206472987 0.2962537157 -1.9716960994
C 3.1000061898 1.0806060160 0.3226614876
C 4.7115518370 0.4855938781 -1.8924798059
H 2.8940720989 -0.0750718731 -2.9000556102
C 4.4999646927 1.2563316239 0.3879176712
H 2.4797471640 1.3869985125 1.1636893354
C 5.3271109610 0.9590091502 -0.7144902509
H 5.3270473485 0.2566468818 -2.7625805045
H 4.9418311770 1.6410515276 1.3072417738
H 3.1040533078 -0.7870254963 0.8975335402
C 6.8241596380 1.1740635925 -0.6465083511
H 7.0912609891 2.1818218001 -1.0030165591
H 7.1948922945 1.0798008867 0.3828333047
H 7.3617499499 0.4500548931 -1.2737007630
F -1.4627179058 4.9586142777 2.9475762308
F -1.2511184714 2.7200030669 2.8834130817
F -2.4292343395 3.7825582240 1.2756296277
F 0.0825964565 -5.3138879403 1.8875393808
F 0.7713470110 -4.2022111167 0.0412180476
F -1.0604111228 -3.5118246866 1.1775652276
F -5.8033134074 -1.1457785128 -1.2279494450
F -4.2106921342 -0.2204623321 -2.5384756399
F -4.4761073217 0.4686748237 -0.4026988759