50
ref_ts taken from hessian every 50
O      -1.7235634080     1.7859420395     1.3189994422
C      -1.1077519513     0.8415836455     1.7660354212
O      -0.0748609018     0.2610814683     1.2593650325
C      -1.4880359936     0.2312741982     3.1385888279
Rh      0.4197434467     0.6971012346    -0.6288872179
F      -0.5832854328     0.6577716443     4.0575053508
C      -1.5030892528    -1.3198062418     3.1612783587
F      -2.7019485036     0.6590084034     3.5089379848
C      -4.3791979744     0.1898593661    -0.9606975614
C      -3.4747367822    -0.1520418450    -2.1734967942
C      -2.0566060522     0.4603073802    -2.0299029157
F      -4.0713750762     0.3314053715    -3.2756091344
F      -3.4001336817    -1.4956177937    -2.2796207278
O      -1.7219631232     1.4094096713    -2.7154709337
O      -1.3669097586    -0.1330013873    -1.1243304053
O       1.0957246501    -1.2338296201    -0.6840695979
C       1.9917072997    -1.6132071841     0.1188951060
O       2.7064725676    -0.9018249329     0.8378942043
C       2.2091137071    -3.1464184450     0.1500248839
F       1.0341989697    -3.7675246030     0.3553785843
F       3.0539357709    -3.4700072870     1.1401041069
C       2.8166191633    -3.6672554987    -1.1789302655
O      -0.5999843886     3.5663776064    -0.6660889097
C      -0.3086785558     2.4845392162    -0.5903690666
C       0.9116928800     0.9375678085    -2.4813447494
O       1.2425631076     1.0402099806    -3.5495344388
C       2.2589911653     1.5969246359     0.1106212672
C       3.2717949343     1.9532488288    -0.8104316944
C       2.0981230080     2.4322690459     1.2387209722
C       4.0468162810     3.0802886641    -0.6320483608
H       3.4730388377     1.3094886598    -1.6639547005
C       2.8773307036     3.5597074480     1.4195979148
H       1.3567538243     2.1696943961     1.9878555492
C       3.8540109752     3.9068514151     0.4826635690
H       4.8194766301     3.3289893439    -1.3541238033
H       2.7304815240     4.1837704119     2.2963136432
H       2.4116151520     0.3853068539     0.4902689925
C       4.7138161717     5.1223029276     0.6827279900
H       4.2401508725     5.8389003864     1.3564048367
H       5.6736177149     4.8305593231     1.1227044678
H       4.9244396718     5.6165780400    -0.2686968962
F      -2.0588993532    -1.7469134122     4.2968221400
F      -0.2725489724    -1.8244457039     3.0858094265
F      -2.2237151152    -1.7728793729     2.1336182515
F       3.1833037256    -4.9381832624    -1.0512451378
F       3.8983043709    -2.9342328075    -1.4831520021
F       1.9447077598    -3.5690848059    -2.1779837134
F      -5.6316364052    -0.1980665711    -1.2017446301
F      -4.3699404067     1.5107026283    -0.7587293961
F      -3.9531207222    -0.4170139581     0.1440689134
