14

C       1.890991542490108     -0.246319163566309      0.034173903486726
C       0.969533508328779      0.917811625663226     -0.400622818023965
O       0.518731848299913      0.999602958826707     -1.501509758009517
O       0.813880677069610      1.812003968059819      0.580414769243869
F       3.152336389271585      0.079478496679881     -0.286961682266304
F       1.566221870393358     -1.360653934485922     -0.606911912174721
F       1.846978906177639     -0.476681406990475      1.349321714922363
H       0.272801595762763      2.532917430140379      0.221502713703147
O      -0.957908505172311     -0.551707480179046      0.843741835179100
C      -2.073498082348867     -0.354048794065308      0.110289043740426
F      -2.293045489419434      0.953601336686810     -0.131443779249457
F      -1.933306424321832     -0.978305918530150     -1.044666918377909
F      -3.165910619615663     -0.818490928464396      0.735083991641140
H      -1.072829019324078     -0.164924876331252      1.722082506834659
14

C       1.738651589627050     -0.433952877788084      0.060754686665861
C       0.400589508219622      0.167816913281230     -0.422111760096117
O       0.275752395691376      0.817431622106030     -1.403801529218434
O       0.725640013978271      2.166717346251534      1.190452410052257
F       2.762415825767483      0.284879272944559     -0.372088316010017
F       1.816638701526931     -1.663544107327151     -0.481132509297637
F       1.812333609573130     -0.559301196547179      1.381644276209164
H       0.463942921250430      2.936717584887082      0.674596117874188
O      -0.597810429867938     -0.313132602903475      0.375116725998070
C      -1.894048045039806     -0.227212173203568     -0.081748382067734
F      -2.286136765900156      1.028339678572872     -0.265194185688473
F      -2.038905467052651     -0.896373446168354     -1.220177289522475
F      -2.658329355532349     -0.781075082333124      0.847885212159737
H       0.326007926217909      2.279541154053630      2.057525594580248
