14
-940.306186015809
C	1.7913243569	-0.3629012768	0.0560788520	
C	0.6776551519	0.6151878868	-0.3748933775	
O	0.4147312308	0.9762727718	-1.4571654602	
O	0.5282985641	1.6844342035	0.8197361631	
F	2.9566525267	0.1693425530	-0.3299536915	
F	1.6169666435	-1.5193828213	-0.5627212741	
F	1.8324891922	-0.5560107050	1.3671957999	
H	0.1355907681	2.4679575903	0.3963186043	
O	-0.7096697874	-0.2128189068	0.6530168398	
C	-1.8859335435	-0.2445424449	0.0546936504	
F	-2.3293069577	1.0122487243	-0.2552636710	
F	-1.8619457369	-0.9337588898	-1.0956470992	
F	-2.8258659762	-0.7928570660	0.8385154165	
H	-0.2539152233	1.0576628819	1.1739874297	
