7

N       0.101147738771468     -1.290788878249521      0.010126752704181
C      -0.139168263773659      0.043117996171055      0.013560707133840
O      -1.227058378391982      0.566021170465295     -0.013463713784504
H      -0.684261019493022     -1.913626703922277      0.042021843322174
O       1.023607957279108      0.741385149825790      0.042412875813658
H       1.036904293260173     -1.644715128257875      0.090467276529315
H       0.768563791104764      1.671675920228301      0.033628626512447
7

N      -0.017516547486035     -1.263564758715085     -0.042523192111558
C      -0.885717089091307     -0.409344147926684     -0.010009818647333
O      -1.624181485688769      0.482073257120292     -0.007066296112947
H      -0.223912926565286     -2.240851663278043      0.091653086380298
O       1.937479993921847      1.061339046352331      0.139711496479795
H       1.707555257077619      0.125583654974174      0.104804268903675
H       2.236784219899321      1.281742656803027     -0.746070678666816
