17

N       2.857376399062387     -1.007482084742695      0.168554116683915
C       2.872798821924515      0.046828897752404      0.781098726911997
O       2.781636407368117      1.077218694652448      1.299053652630032
H       3.561594379001205     -1.715828884079385      0.306628084579395
O       0.647030815339327      0.021814901583533     -1.603551828044151
H       1.277395796877285     -0.629225824315250     -1.266766949292899
C      -0.484404551490862     -0.002239965051158     -0.843758848901304
C      -0.706209943874962     -0.969963328924339      0.133585169372896
C      -1.880281090362613     -0.939936946435834      0.877677392718084
C      -2.835506654452483      0.042811637915106      0.654415568866211
C      -2.605770567826984      1.002108485092342     -0.327729742530365
C      -1.438056002712487      0.986092338241616     -1.075669444989582
H       0.038448103326645     -1.742530805341797      0.307759669989673
H      -2.046245498975998     -1.697087180655096      1.638337473875336
H      -3.750457235062745      0.062070216684610      1.236945975070318
H      -3.344743532645345      1.775836450244563     -0.512648565585952
H      -1.244877930435439      1.730774463481040     -1.840719928472130
17

N       3.281617867432664     -0.512037562954641     -0.277387816522552
C       2.102349305777868      0.050899690992825      0.090055743832452
O       1.973684034978877      0.985578840018090      0.836306163353893
H       4.127935936049238     -0.056094357117331      0.011677336714355
O       1.080161562011131     -0.628191768162346     -0.510357965297990
H       3.305773956418444     -1.230919998806623     -0.977629304051352
C      -0.233096496798424     -0.253970456079707     -0.239176030352419
C      -1.108225256220329     -1.273967634296831      0.098865728707223
C      -2.449981137407392     -0.977581930039658      0.305197736653170
C      -2.903787546516494      0.329456114805443      0.179443000054530
C      -2.010545355848464      1.339560417746739     -0.160545832719378
C      -0.668262610695912      1.055814409330051     -0.377910558867253
H      -0.731227356152992     -2.286960491795057      0.192073800250160
H      -3.140278864013207     -1.772985060099686      0.567652459405349
H      -3.951212836354982      0.561326644768043      0.344190643585239
H      -2.359779209084026      2.362403957647342     -0.260464664629270
H       0.033743249053945      1.839104335757092     -0.635223166607557
