17
-476.130245998648
N	2.7320636551	-0.9969549351	0.2932535646	
C	2.3116958170	0.2229405806	0.2296038008	
O	2.3498328124	1.3550726838	0.5160399601	
H	3.5676750403	-1.2134704711	0.8172797844	
O	1.0595165163	-0.3263985882	-0.8887776616	
H	1.7485783962	-1.2539413957	-0.4847251243	
C	-0.2368458166	-0.1765640326	-0.4602063716	
C	-0.9776876420	-1.2859709316	-0.0675031318	
C	-2.2903059991	-1.1136839181	0.3545860342	
C	-2.8557070126	0.1552465270	0.3935910259	
C	-2.1021351219	1.2565732294	0.0009887292	
C	-0.7920824428	1.0982930977	-0.4309965021	
H	-0.5279669970	-2.2739263042	-0.1037789577	
H	-2.8727459919	-1.9790615777	0.6555088554	
H	-3.8807875428	0.2855107474	0.7245961320	
H	-2.5388514523	2.2501810038	0.0266930846	
H	-0.1919441425	1.9459197182	-0.7437983211	
