15

C      -1.537117834225953      0.870102567714284      0.695011774266019
C      -0.259491230145609      0.608528734219761     -0.069416420207572
O      -0.187446245002939      0.691080817718001     -1.283770755177340
O      -1.019261584109146     -2.247779657735500     -0.297995864091540
H      -2.383143694184635      0.672988700019488      0.038070372072825
H      -1.565116123360318      1.923065500198176      0.993118897442738
H      -1.616813466842822      0.245543826816797      1.587357005707512
H      -1.017956581685182     -1.717946810297209     -1.103397288985460
N       0.819743424380602      0.251649962125835      0.688925312968441
C       2.147016468708482      0.168207083767505      0.102883055525288
H       2.080799822393320     -0.344635675056804     -0.857189735168550
H       2.580691053436669      1.158718445428685     -0.071708978983940
H       2.800030195562975     -0.398204826586601      0.769322329519316
H      -0.194994735899978     -2.008055855214245      0.138031012437260
H       0.742208914445167      0.342554035230392      1.688520061410189
15

C      -1.662558801937154      0.702691573400936      0.630537529123655
C      -0.918815642808394      0.022000266446527     -0.480051390013847
O      -0.361784313507168      0.571801478852797     -1.395220333103050
O      -1.002936735067341     -1.328707142945489     -0.407641252357821
H      -2.700804720991912      0.843645193215221      0.313331024142846
H      -1.211054729529374      1.676329689147561      0.811871911607255
H      -1.647481412851048      0.098078380114846      1.535943013835982
H      -0.560262626954537     -1.665044298330895     -1.200839679776450
N       1.327452010635984     -0.120660788205588      1.209495679008318
C       2.311978320036995      0.184830482205297      0.170405286558943
H       2.039063348155554     -0.333124752647133     -0.751911666377454
H       2.278211940926332      1.254297839801243     -0.051242901136494
H       3.344899245811636     -0.086157531175482      0.429973826119685
H       1.303863692683402     -1.116206602045096      1.399720032396663
H       1.574462990109174      0.340279028379823      2.077715519858641
