15
-324.906897013817
C	-1.5908442165	0.7471590855	0.6607427535	
C	-0.4410431709	0.2800655548	-0.1961258408	
O	-0.1897553891	0.6824959649	-1.3090795858	
O	-0.7978127596	-1.5748412788	-0.1480362511	
H	-2.4992952507	0.7047774797	0.0609755079	
H	-1.4086391794	1.7873522602	0.9530258113	
H	-1.7215980018	0.1238673226	1.5464170879	
H	-0.7343296214	-1.8607993295	-1.0656329904	
N	0.7876986137	-0.1595082087	0.6800165685	
C	2.0942117428	0.1670996306	0.1030151677	
H	2.1218319885	-0.2075757032	-0.9188029282	
H	2.2460887764	1.2479223307	0.0761343825	
H	2.8793801678	-0.3070141119	0.6946810623	
H	0.3665042255	-1.2150893995	0.4744177275	
H	0.6948096741	0.1448377189	1.6438876631	
