15

C       0.227780655552813     -0.690067797367205     -0.475830221013357
C      -0.935236193771745     -0.078106557088109      0.344530737115944
O      -1.952277989850517     -0.947320974962209      0.328464411565881
H       0.457141084397687     -1.667829001764540     -0.022861024191374
H      -0.148052988102749     -0.857584526141768     -1.490988262699343
H      -0.515248113368181      0.134590610959225      1.378763091410261
C      -1.309421987695379      1.313673723777934     -0.223653297200469
O       1.462319916790946      0.045076644791630     -0.644056966372993
C       2.214335690136383      0.150542911106984      0.529810347664573
H       2.229288549021206     -0.801623385559621      1.085661201496692
H       1.831042365241302      0.925099148329783      1.211606722301398
H       3.243705903626368      0.409863569462593      0.250956387082095
H      -1.647758973708477      1.192458285111540     -1.261543976834459
H      -0.481027165772447      2.039518709871660     -0.195487109514398
H      -2.150030185575678      1.705147878937776      0.360295363871914
15

C      -0.462735665985337     -0.988784936030258     -0.328522596620944
C      -1.011509449902996      0.086884142004209      0.460465128406858
O      -1.826966071492726     -1.064111469288195      0.184353062015233
H       0.248464369539384     -1.674830648899346      0.118400717797482
H      -0.378183742829674     -0.846146837971570     -1.398753136999428
H      -0.686019687147198      0.158884305551486      1.499415033811698
C      -1.398238632408413      1.386121563692402     -0.186921664310827
O       1.875975088205753      0.154635833019628     -0.740988864075701
C       2.372147608510747      0.201107563300528      0.499056501733078
H       2.017390827860490     -0.623208773227149      1.204285049190880
H       2.134696296842385      1.143350162694492      1.088305760902933
H       3.499441127222887      0.123757065351413      0.580803298641112
H      -1.755796429495057      1.198447115869358     -1.204388034333545
H      -0.505076077224521      2.019099843868726     -0.249636501226399
H      -2.186530204841667      1.904821865039119      0.376116607046980
