15
-308.231627427476
C	-0.1656912010	-0.8130931855	-0.3458295295	
C	-0.9963388409	0.0762754970	0.4329879304	
O	-1.8019287116	-1.0393568859	0.1889343607	
H	0.3670694743	-1.6115355207	0.1473450443	
H	-0.2648570923	-0.8048029197	-1.4189806010	
H	-0.6995344120	0.2119486090	1.4857017941	
C	-1.4292650796	1.3879460762	-0.1874035525	
O	1.6775199384	0.0345912182	-0.6970559844	
C	2.3268210467	0.1609007186	0.4861031280	
H	2.1397650319	-0.6857094136	1.2044164206	
H	2.0603887208	1.0801524919	1.0729452101	
H	3.4397110763	0.1989977392	0.3856273545	
H	-1.7303061592	1.2181066854	-1.2261003941	
H	-0.5980993060	2.1016769143	-0.1752099260	
H	-2.2831279271	1.8129196886	0.3557127292	
