19

C       2.660560395530283     -0.580576252060259     -0.000678882629301
C       3.532677461178210      0.570430835637366      0.002099577115502
O       4.092737463068989     -0.748933471837587      0.002310974673400
H       2.157626576320153     -0.860131272685233     -0.920329705051989
H       2.154284810020461     -0.860137843371880      0.916839827794888
H       3.668559997082004      1.136262363641734     -0.917237964441131
H       3.665251797961300      1.133467669323190      0.923513546066170
O       0.485841383128554      1.033277069771127     -0.000448906436090
C      -0.676227637493397      0.529478581158623     -0.000147128406689
C      -0.922974033121948     -0.889793431345388     -0.000302987214286
C      -2.201481282302022     -1.419470173272635     -0.001444050894508
C      -3.335559731168574     -0.604152340630812     -0.001503501217128
C      -3.135663920351586      0.780612376907746     -0.000395673331285
C      -1.869386844157465      1.333040451618935      0.000438718456459
H      -0.062676126879792     -1.556374150877101     -0.000074830562971
H      -2.321889883156958     -2.503401728042679     -0.002537174610057
H      -4.336111069233858     -1.027453346923929     -0.003172872345287
H      -4.001075103934387      1.445290879166250     -0.000042898048351
H      -1.734305676212897      2.412980733853024      0.000846055882059
19

C       1.810927010717433     -0.181299967594463     -0.001688565104418
C       3.219845584873663      0.433078260393552      0.000404905584016
O       4.109181958193922     -0.563425708885964      0.004203938445832
H       1.712519632656899     -0.807031724832722     -0.897152974992706
H       1.711240729978802     -0.813478677217523      0.889007662337642
H       3.259985940302058      1.132250265260426     -0.888071397959686
H       3.255298311498235      1.134007489682136      0.887283731012336
O       0.730254223795692      0.799560528174357      0.000305790118355
C      -0.521242073315125      0.331870083423964      0.000295913684480
C      -0.854003311430760     -1.030402582323869      0.000084235719428
C      -2.188221718432269     -1.422706361874741     -0.001656410761074
C      -3.217321381958316     -0.492004325481661     -0.002499112214758
C      -2.887504476231896      0.863373332462360     -0.000567322940537
C      -1.565057029496933      1.273426492624941      0.000448876341063
H      -0.073646080262064     -1.779571561827457      0.002159882360908
H      -2.419995432934510     -2.484669695930862     -0.002069646443720
H      -4.255470709015871     -0.811183846652718     -0.004170909490702
H      -3.676052075291563      1.611578261682837      0.000203037646896
H      -1.301587469995365      2.326855310926756      0.001875817276964
