19
-460.696313976469
C	2.1707676066	-0.2628052322	0.0004025952	
C	3.3922897616	0.5293680800	0.0017701213	
O	3.9889268625	-0.7154451317	0.0014779407	
H	1.8981713048	-0.7388151398	-0.9289915449	
H	1.8968385097	-0.7399719626	0.9288115158	
H	3.5507786433	1.1524589054	-0.8969818201	
H	3.5494581425	1.1514172159	0.9014738002	
O	0.6333940107	0.9018717360	-0.0000040327	
C	-0.5653813352	0.4137786489	-0.0004482069	
C	-0.8658081949	-0.9772637586	-0.0012901419	
C	-2.1767158070	-1.4344978116	-0.0017901941	
C	-3.2586339944	-0.5589530937	-0.0014697235	
C	-2.9884894154	0.8117097238	-0.0006148442	
C	-1.6907153670	1.2880397181	-0.0001026942	
H	-0.0519027594	-1.6950726648	-0.0015769447	
H	-2.3558963835	-2.5088215559	-0.0024549488	
H	-4.2797074106	-0.9291656159	-0.0018828314	
H	-3.8134883363	1.5229759532	-0.0003376491	
H	-1.4878226176	2.3560529793	0.0005634622	
