14

C      -1.040338618375411      0.290492076379212     -0.029644675720280
C       0.423966801265228      0.064753677739483     -0.468350289411013
O       0.713454598028669     -0.437993211575310     -1.514787978351454
O       0.335033196308181     -2.266315303292971      0.843065827259189
F      -1.862582578727976     -0.557348260377001     -0.634656655511369
F      -1.371476454083833      1.541441192290108     -0.411248966835534
F      -1.221278274177289      0.205705370614232      1.286111583510109
H       0.659692783986338     -2.846425117242990      0.146993536421817
O       1.242383536045384      0.621711194320646      0.414000606221935
C       2.623646901717730      0.713446474200428      0.036128081230781
H       2.892911096228980     -0.103175707392014     -0.634909594835849
H       2.789380240016180      1.672596922747478     -0.460348350931835
H       3.195919712182263      0.667219464544843      0.961383089301909
H       0.853263400691371     -2.472687431115439      1.626567989463422
14

C      -1.104820873781339      0.116430515920775     -0.036871328211852
C       0.070610718498283     -0.771326266633735     -0.501280984521709
O       0.626155439185300     -0.612886393413073     -1.546839129978281
O       0.264212012596140     -1.797376303944824      0.336314437047696
F      -2.225643923706428     -0.415714698800696     -0.562004164802468
F      -0.978015677078241      1.354629353802433     -0.495162013073689
F      -1.250949667558520      0.152906229091497      1.285362199101862
H       0.914540055861698     -2.380854198262246     -0.082778196869788
O       1.587729350957649      0.707464919913813      0.965812718225293
C       2.687948405928557      1.024394319846691      0.119440982225613
H       2.848735896489349      0.251133222911581     -0.640010511523190
H       2.440291502808892      1.957938437023510     -0.386660669103203
H       3.607943540539325      1.169460725768255      0.695635678206020
H       1.855542942705944      0.028572527667518      1.592212971258107
