14
-642.524384896139
C	-1.0614268252	0.2040058491	-0.0151607143	
C	0.3115731909	-0.3906000073	-0.3906616210	
O	0.6747110872	-0.5370761395	-1.5260443053	
O	0.4572249533	-1.6988739096	0.5938758064	
F	-2.0293326406	-0.4974167795	-0.6083920469	
F	-1.1180141798	1.4658793020	-0.4574836759	
F	-1.2927224407	0.2121859187	1.2982664441	
H	0.8286554673	-2.3771825110	0.0117915180	
O	1.3304010823	0.2865854181	0.6518710128	
C	2.5008705975	0.8548505029	0.0569929389	
H	2.6913861629	0.3901803812	-0.9134239699	
H	2.3390779359	1.9266641801	-0.0684633614	
H	3.3380212446	0.6835932183	0.7348781903	
H	1.2687584326	-0.8844377967	0.9806826231	
