17

N       1.072430540212903     -0.672585070785761      0.016592340634013
C       2.168423393665702      0.133870698380686      0.010012284367762
O       2.199785671163478      1.340575454104413     -0.013069035748609
C      -0.286100398399587     -0.295594175677856      0.004867913073439
O       3.289475780991808     -0.633302748248838      0.033452556999415
H       1.266397862194355     -1.661153673439647      0.033772718860695
H       4.031869034279459     -0.014920286266906      0.025755385996105
C      -0.713432981165867      1.031107149861363      0.006140903013933
C      -2.077005992033192      1.303094596165473     -0.002480120058779
C      -3.017624483467251      0.282078153216619     -0.010982900257030
C      -2.582893552291731     -1.038221387436275     -0.011909151195917
C      -1.227465994963419     -1.326669047477712     -0.005268748975312
H       0.012157040524112      1.832477671218018      0.013477862388548
H      -2.402635559991298      2.338771742791585     -0.002834047420078
H      -4.078109395822946      0.510954429688139     -0.017682837518263
H      -3.301634427640390     -1.851753645754845     -0.018093278769830
H      -0.892601847825707     -2.361229545540101     -0.007457687393736
17

N       1.196041443946034      0.333036890040489      0.024339479061880
C       1.876749764915746      1.332137822598389      0.005945244728660
O       2.626078433248259      2.221765815757294     -0.013424177072958
C      -0.203176244672246      0.113819906384642      0.030106289395654
O       2.515223251856763     -2.491931643491001      0.029252139544149
H       2.334540668951659     -1.546708820359940      0.106218179334411
H       2.831312586723622     -2.614486174550164     -0.870171615522342
C      -1.099899459164857      1.179943493492716      0.011488573571524
C      -2.464144958633857      0.926536790336940      0.016187572475238
C      -2.935219387734308     -0.381450134482255      0.038886837821182
C      -2.032006581836962     -1.437156550991672      0.058178059369369
C      -0.663498418520584     -1.197975142413738      0.054732363585963
H      -0.730315305610384      2.201532724215428     -0.006039094801626
H      -3.161722583096398      1.757825117449533      0.002639051748213
H      -4.002895421017004     -0.575365509117233      0.042877693565703
H      -2.391852173107575     -2.460900667327704      0.077504427134886
H       0.050162239866557     -2.015559272818031      0.072503044375580
