17
-476.134849743277
N	1.0878611516	-0.5673549020	-0.0040291386	
C	2.0467281343	0.3141701043	0.0104825518	
O	2.3739269878	1.4469282805	-0.0092731818	
C	-0.2872954139	-0.2574207935	-0.0013671005	
O	3.2071653775	-0.8728008582	0.0984820130	
H	2.1600053383	-1.3931902297	0.0000442278	
H	3.7516078239	-0.8687909858	-0.7008538830	
C	-0.7670674815	1.0529099259	0.0005217682	
C	-2.1377553720	1.2810797404	0.0010193682	
C	-3.0355398595	0.2207807263	-0.0009348360	
C	-2.5516747609	-1.0830291303	-0.0027207289	
C	-1.1857280110	-1.3237032179	-0.0029913794	
H	-0.0726339097	1.8858427296	0.0023254523	
H	-2.5044853322	2.3030366000	0.0030800282	
H	-4.1043445560	0.4082307887	-0.0003527929	
H	-3.2425697821	-1.9205672741	-0.0032055048	
H	-0.7991252921	-2.3380930348	-0.0025412234	
