28

N       0.033232805990736      3.308404962289790     -0.855194452369070
C       0.026880409782451      2.963910690164523      0.313847059337521
O      -0.008021444788197      2.556970347322859      1.399448184178793
H       0.169929226471094      4.275742886020295     -1.107048517004190
N      -0.047771085229839      0.360085815193293     -0.657533023220619
H      -0.068650342197049      0.842475199047014     -1.544108518119711
C       1.202657325929620     -0.179631472614491     -0.315981599854347
C      -1.255475431660707     -0.317821874121782     -0.338620533822931
C       2.211960258068056     -0.308951661521705     -1.269342007383489
C       3.458725161280088     -0.805595112861457     -0.907010263856951
C       3.711203736512592     -1.184167873722953      0.404921513481369
C       2.705592641124358     -1.048952617599259      1.358794042217975
C       1.462433390834451     -0.545644987964437      1.008506256281077
H       2.010196323589029     -0.032820721019862     -2.301261833591434
H       4.232526441210722     -0.908101181908937     -1.662286986034612
H       4.683752307990733     -1.575406571507844      0.685200790101717
H       2.896244094228908     -1.328662803121442      2.390894936072410
H       0.683845837241389     -0.419787936227113      1.754775971970833
C      -1.336780115459966     -1.708135330776296     -0.399395482272502
C      -2.540234383871086     -2.347187630818138     -0.138111602800797
C      -3.672212057785302     -1.608098324359358      0.188231858885110
C      -3.589970836621800     -0.222989213153738      0.259574755927242
C      -2.386219723459035      0.421561961429901      0.002814748629440
H      -0.453269042309505     -2.280882926055830     -0.665146556426015
H      -2.597734190835908     -3.429745955796248     -0.200897449871721
H      -4.613312863999402     -2.110491693044228      0.387982088738642
H      -4.466717665954454      0.360859197394307      0.523225887114264
H      -2.317372836454580      1.502888821209019      0.062473559956045
28

N      -0.028363118584850      2.895698147486635     -0.979165935929272
C      -0.041566912943268      2.032216688189981      0.063808848293382
O      -0.043866453699062      2.364497209510926      1.225265565455944
H      -0.006891989456427      3.885594668612392     -0.795639975728700
N      -0.039126712643189      0.656652717865519     -0.385010380102698
H      -0.037622673938029      2.549377578317730     -1.921453631071032
C       1.217525029652157     -0.001803142148379     -0.129850345868011
C      -1.229108897708285     -0.084512109895935     -0.194830241684369
C       2.092083104019314     -0.218137068861305     -1.186373503142916
C       3.314372228152712     -0.839246521543416     -0.957918403504241
C       3.657246589675312     -1.242210415432252      0.327558116091578
C       2.780342739459356     -1.023342873290248      1.385532570788710
C       1.558812879578638     -0.402163461732607      1.159713604790796
H       1.802889899067339      0.095658795094952     -2.183632841154564
H       3.996982158516804     -1.009879153958130     -1.784911168762424
H       4.612180469615518     -1.729607648199194      0.504632608953997
H       3.050056664777111     -1.333048232743796      2.390115561448698
H       0.863801489451573     -0.213058885095611      1.972721699808540
C      -1.227562873898538     -1.463345005608426     -0.423875741516520
C      -2.399972486887019     -2.193553267527359     -0.292242364004685
C      -3.590523372380269     -1.571842284061672      0.063730306420774
C      -3.590726078370916     -0.200029437178918      0.286066720973344
C      -2.424871924085747      0.543256651538540      0.159766396704008
H      -0.307035448620509     -1.961247981971640     -0.708217493081329
H      -2.377932637633923     -3.263789646075490     -0.478371790492714
H      -4.504149682784896     -2.147056535299960      0.170329396409322
H      -4.509532683695824      0.305675189646244      0.569163946857168
H      -2.447187458515783      1.609138559101958      0.363534969845114
