28
-687.328068087620
N	-0.0218888781	2.7611184134	-1.0133051190	
C	-0.0382707507	2.1502733240	0.1552160124	
O	-0.0518614153	2.3879071270	1.3322141620	
H	0.0081698945	3.7723652561	-1.0380627280	
N	-0.0316803181	0.6830397906	-0.4408835886	
H	-0.0205636887	1.4869666451	-1.4199960722	
C	1.2189989709	0.0079486712	-0.1736067544	
C	-1.2324816226	-0.0900748941	-0.2216158234	
C	2.1057729688	-0.2151958133	-1.2164619337	
C	3.3200387669	-0.8426416113	-0.9588521735	
C	3.6377729470	-1.2373975451	0.3342509744	
C	2.7429750791	-1.0028561242	1.3745109955	
C	1.5289111611	-0.3788143896	1.1256645485	
H	1.8440124165	0.1006012020	-2.2220641697	
H	4.0165546330	-1.0218308523	-1.7716383282	
H	4.5857726851	-1.7266599138	0.5343194999	
H	2.9941944677	-1.3042976187	2.3864138969	
H	0.8244069599	-0.1768693340	1.9258789649	
C	-1.2226578234	-1.4645268058	-0.4436628067	
C	-2.3941886707	-2.1945405544	-0.2965996759	
C	-3.5758585858	-1.5624471646	0.0714815168	
C	-3.5777066214	-0.1912779612	0.2919430975	
C	-2.4110068274	0.5495711536	0.1489915976	
H	-0.3016364900	-1.9623777544	-0.7279856054	
H	-2.3795618249	-3.2658400056	-0.4709796291	
H	-4.4892534498	-2.1363888630	0.1892086986	
H	-4.4932049421	0.3123488093	0.5857699753	
H	-2.4205738848	1.6175052053	0.3360316309	
