18

N      -2.131584786915726      1.042196657488742      0.575986897075022
C      -2.202403588631958      0.030712147378314     -0.351816043808240
O      -3.251698376057957     -0.337754193152522     -0.843888969763278
H      -3.027499410292259      1.294014879011634      0.960193912632888
N      -1.003811267717199     -0.547674944368681     -0.728880430151109
H      -1.341315775120050      1.088936021671423      1.198837318923570
H      -1.143715355386171     -1.378868200344457     -1.281794785981321
C       0.298558627730329     -0.290114381589657     -0.248569830689372
C       1.121026250466982     -1.364954971040020      0.091292583610696
C       2.419623760695466     -1.142755551231119      0.527215065018283
C       2.906994000161236      0.153248761845031      0.651014179577939
C       2.089339121679062      1.224152923964826      0.311793783854535
C       0.797075173797921      1.009821332309723     -0.151915954908682
H       0.732750861657591     -2.376809672642118      0.015736913302948
H       3.049530439334939     -1.988779263270912      0.783750414884333
H       3.919090153571621      0.326358127019702      1.001742211835693
H       2.465789187302962      2.239879045129225      0.385676925510065
H       0.177861682760787      1.845954725430355     -0.458757447398836
18

N      -3.161964737255726      0.822776717078783      0.660846014555104
C      -3.018493930000880      0.450300934149632     -0.490283801022194
O      -2.800929684601780      0.028944517527894     -1.547144362880160
H      -3.852452446580595      1.513738389593998      0.910036830660186
N      -0.718896177000748     -1.223772619377137      0.966702641019496
H      -1.336358108583207     -0.693713967744623      1.563664386364934
H      -0.596107608700190     -2.174826684253362      1.277716515082710
C       0.454350935547526     -0.567316800007311      0.589575937003537
C       1.556555684758207     -1.290856691678947      0.125372969735935
C       2.701429614723755     -0.631958279253423     -0.298894331710606
C       2.773688876846061      0.756419105886896     -0.275030202089169
C       1.677636188009788      1.477559327263826      0.184875524561805
C       0.528524885612720      0.828853454003003      0.614491779495566
H       1.508354321291679     -2.376467877161931      0.093595313137728
H       3.547280744024387     -1.213289151777543     -0.654440767086206
H       3.670404296483255      1.267847816520895     -0.608444690262443
H       1.715790519091972      2.562801986712806      0.212902110599172
H      -0.323229875737767      1.400635919050200      0.973364869109364
