18
-456.267483794610
N	-2.8499205502	0.2961556638	0.8777306452	
C	-2.2437459269	0.0015778799	-0.2594606691	
O	-2.3400229029	0.1845491163	-1.4414314580	
H	-3.7091841550	0.8298864186	0.8462223042	
N	-1.0838793540	-0.8350620339	0.3999774289	
H	-1.8149571716	-0.4337942005	1.3421934363	
H	-1.1805844017	-1.8193860373	0.1659214384	
C	0.2608236508	-0.3794078162	0.2074156105	
C	1.2838022588	-1.2957513450	-0.0005861685	
C	2.5898274223	-0.8479404838	-0.1550396491	
C	2.8722105247	0.5110172281	-0.1061919198	
C	1.8410537859	1.4220858413	0.0966163865	
C	0.5339880519	0.9835618386	0.2532035107	
H	1.0611406711	-2.3588846830	-0.0423471865	
H	3.3870411183	-1.5660076034	-0.3185001639	
H	3.8918175713	0.8606410088	-0.2304331010	
H	2.0538800866	2.4858513894	0.1286887565	
H	-0.2741721870	1.6920199739	0.4068485756	
