21

C      -3.028942044785106      0.767954326942381      0.584886384302227
C      -1.703437004351137      0.542290471888986     -0.077896628100429
O      -1.438036710698497      0.763346804286604     -1.226228760258468
O      -2.517963570728118     -2.179966332526990     -0.506508927403412
H      -3.816602198436948      0.717069827248677     -0.164709060067653
H      -3.019525481620124      1.767641198871054      1.030510161783138
H      -3.201086042485094      0.035083755075605      1.371770804683904
H      -2.129439920919067     -1.815766511358274     -1.309406497548186
O      -0.782239806321121      0.062550472208748      0.814679002549440
C       0.554916455263501      0.076655260895990      0.412719400122526
H      -1.795455989284456     -2.205410969125545      0.128652336965853
C       1.226260176439566     -1.123238625485768      0.258058796809853
C       2.577719967232905     -1.102081400170075     -0.074776213903941
C       3.236664234895744      0.107053641948755     -0.252329917556834
C       2.544548536422450      1.303236667186762     -0.089954682795724
C       1.199667599748275      1.292464729031462      0.245955610731588
H       0.702117725805346     -2.062580730881852      0.403255929291731
H       3.113815092421474     -2.037957014854947     -0.196169800224285
H       4.289114662798441      0.119565599959076     -0.516105038309321
H       3.055069428797311      2.251486828662232     -0.224333840008426
H       0.647312783874146      2.217026935786745      0.374904230600833
21

C      -3.333196619335093      0.648107814641420      0.312953056475933
C      -2.356722670445488      0.109404367416234     -0.692252763376148
O      -1.784344537712867      0.745581988031462     -1.534331505014225
O      -2.193381530987782     -1.236543978458180     -0.579328392868701
H      -4.343094427687985      0.335260609242490      0.028686518453297
H      -3.275579301794167      1.735737883930368      0.318631616470738
H      -3.118107329388965      0.251970153454614      1.306483491948771
H      -1.570620657979496     -1.486869535005313     -1.279262222119327
O      -0.387961960865554     -0.160077704648906      1.572618873503125
C       0.781111947842555     -0.102863576032617      0.864759359182027
H      -0.742453927743204     -1.055265750946686      1.521592125324703
C       1.417369988953633     -1.246368625918357      0.391824597389862
C       2.609734268582568     -1.126558570884906     -0.314852739876635
C       3.167058465258126      0.122859574794218     -0.550258843531379
C       2.518344585759043      1.259338570217387     -0.074049110317525
C       1.328719725664594      1.154427912889199      0.630093096463199
H       0.989458548968635     -2.227605632436979      0.586776867035067
H       3.104296700524455     -2.021808384720800     -0.679841823791033
H       4.096490771263476      0.212502828210653     -1.102328402358750
H       2.941911107996857      2.242014915459558     -0.257641977525553
H       0.806903181968448      2.032473510229592      0.996373696410928
