21
-536.526740356555
C	-3.0644783224	0.8021377120	0.5366877032	
C	-1.9939933075	0.2818158540	-0.3603798906	
O	-1.5259350141	0.6754897582	-1.3642290282	
O	-2.2296588327	-1.4476391624	-0.3237818134	
H	-3.9992698599	0.8218739560	-0.0283168616	
H	-2.7903139244	1.8183142564	0.8253297266	
H	-3.1722938122	0.1802030146	1.4215798995	
H	-1.8695228707	-1.7430455471	-1.1720399038	
O	-0.7391118446	-0.2579339610	0.9033607409	
C	0.5517308234	-0.1148723290	0.5051583100	
H	-1.3766407179	-1.2752408577	0.3890869372	
C	1.3476334854	-1.2369757777	0.2737070218	
C	2.6712945014	-1.0819900161	-0.1193104722	
C	3.2084045034	0.1873560038	-0.2963235583	
C	2.4101818443	1.3042518351	-0.0709164063	
C	1.0890208312	1.1597222470	0.3282685480	
H	0.9283909089	-2.2280625638	0.4276997899	
H	3.2858840564	-1.9613795495	-0.2876605539	
H	4.2417886810	0.3063808162	-0.6051553193	
H	2.8207955604	2.3003362125	-0.2068878069	
H	0.4614047380	2.0271408291	0.5064230963	
