19

C       1.296029000000000     -1.408425000000000     -0.116276000000000
C       2.652688000000000     -1.257211000000000      0.085979000000000
C       3.291795000000000      0.000000000000000      0.198525000000000
C       2.652689000000000      1.257211000000000      0.085978000000000
C       1.296029000000000      1.408425000000000     -0.116277000000000
Pt     -0.150201000000000      0.000000000000000     -0.058773000000000
H       4.382515000000000      0.000000000000000      0.320252000000000
H       3.293173000000000     -2.147749000000000      0.107913000000000
H       0.978351000000000     -2.450633000000000     -0.285488000000000
H       3.293173000000000      2.147748000000000      0.107911000000000
H       0.978352000000000      2.450632000000000     -0.285490000000000
P      -1.823413000000000     -1.734800000000000      0.098651000000000
P      -1.823412000000000      1.734801000000000      0.098651000000000
H      -2.721291000000000      1.715299000000000      1.194799000000000
H      -1.351129000000000      3.067269000000000      0.187384000000000
H      -2.749036000000000      1.871274000000000     -0.966133000000000
H      -2.721288000000000     -1.715301000000000      1.194801000000000
H      -2.749040000000000     -1.871269000000000     -0.966131000000000
H      -1.351131000000000     -3.067269000000000      0.187378000000000
19

C       0.149746000000000     -1.887020000000000      1.143438000000000
C      -1.251022000000000     -1.859662000000000      0.697859000000000
C      -1.251022000000000     -1.859662000000000     -0.697859000000000
C       0.149746000000000     -1.887020000000000     -1.143438000000000
C       0.995779000000000     -2.040330000000000      0.000000000000000
Pt      0.036344000000000      0.077871000000000      0.000000000000000
H      -2.122556000000000     -1.811328000000000     -1.352463000000000
H      -2.122556000000000     -1.811328000000000      1.352463000000000
H       0.473469000000000     -1.948597000000000      2.184936000000000
H       0.473469000000000     -1.948597000000000     -2.184936000000000
H       2.078513000000000     -2.168201000000000      0.000000000000000
P       0.149746000000000      1.615698000000000      1.664688000000000
P       0.149746000000000      1.615698000000000     -1.664688000000000
H       0.330556000000000      2.966751000000000     -1.283340000000000
H       1.197797000000000      1.468872000000000     -2.606562000000000
H      -0.961793000000000      1.737051000000000     -2.535682000000000
H       0.330556000000000      2.966751000000000      1.283340000000000
H      -0.961793000000000      1.737051000000000      2.535682000000000
H       1.197797000000000      1.468872000000000      2.606562000000000
