12

C       1.075466718580907     -0.228318530790648      0.415260057872215
F       0.896838893132187      1.289351746260072     -0.089610538305302
O       2.152166409649417     -0.742571088977613      0.017454122677151
C      -0.207530121460002     -0.862168479881720     -0.151364044512064
H       0.943342383289276     -0.004604297672863      1.504999827749377
H      -0.156618178534845     -1.932646136617770      0.077757409925878
H      -0.194039552177082     -0.731539701838459     -1.243878619514851
O      -1.449444380688969     -0.418921613514924      0.395120883883970
C      -1.933174665389356      0.777530404414492     -0.165450915423615
H      -2.054493732148442      0.678629123769280     -1.257905083628709
H      -2.917893931675988      0.964037787996634      0.279340184591898
H      -1.260461481570705      1.618676600272285      0.024485055265727
12

C       1.107721238323553      0.565437638423784      0.499889754914281
F       2.040532213884569      1.481005804056511      0.039592947658112
O       1.491593208571007     -0.745167597107221      0.388165113561999
C       0.367383126222426     -0.246567581399772     -0.440060430848399
H       0.716266534175527      0.903748591311985      1.457220717806373
H      -0.654283916713181     -0.628887388783605     -0.162114511410436
H       0.664350362577555     -0.134740355772672     -1.482860743239086
O      -2.271897133080534     -0.851484376328067      0.412918904155153
C      -2.850183549132576      0.307423741174869      0.048971517095972
H      -2.149523638274691      1.049639327380583     -0.447655789294337
H      -3.692836456185233      0.212657032305833     -0.693742764308805
H      -3.301423542677661      0.904406604099846      0.892119448790438
