12
-368.176889899816
C	1.2233981590	0.0836710561	0.4301166109	
F	1.2040280264	1.4122797993	0.0085456698	
O	1.9390580825	-0.7514427888	-0.3610391661	
C	0.2954777383	-0.8316004430	-0.1738200284	
H	1.4338887689	0.0975428386	1.5042000977	
H	0.0682145899	-1.7679521619	0.3048493308	
H	-0.1321526765	-0.5720089278	-1.1296850177	
O	-1.7546622487	-0.5114161166	0.5099428052	
C	-2.4149361782	0.3881035830	-0.2518488867	
H	-1.9565277775	0.5634150954	-1.2694137802	
H	-3.4768189639	0.1065081116	-0.4842328965	
H	-2.4868727501	1.4192089772	0.1862002714	
