15

C      -2.279601878953938      0.963289803994125      0.881541540836273
C      -1.107877252170962      0.654674074443512     -0.012721560927155
O      -1.202626157442472      0.437844852075596     -1.199473747746132
O      -1.812165587292171     -2.230716908337487      0.048124677111602
H      -3.059080344371156      1.442451083863273      0.286742555820476
H      -2.007013884125780      1.596675539771796      1.729905841812421
H      -2.659647594670111      0.005888042536009      1.253891403148543
H      -1.701472048514773     -1.712158117878310     -0.759882134727333
N       0.113301235070408      0.598387787407193      0.638166834427076
C       1.292006888081206      0.139990073157288      0.007607558130611
F       1.176980148112582     -1.103407763187173     -0.485688573260627
F       1.678307272168869      0.928695019090019     -0.994212536282371
F       2.269963507512773      0.119581792147961      0.929541889340831
H      -1.127600017954707     -2.905590407138631      0.004161428219963
H       0.151007728537502      0.643594615075904      1.643437012734451
15

C      -2.914551111784025      0.595778906001734      0.604697565968963
C      -2.051212420098731     -0.054767329569341     -0.437802117572087
O      -1.616187843117110      0.475051689940034     -1.424981785175174
O      -1.798523673109637     -1.350256449537462     -0.140656684885446
H      -3.814975614660742      0.001519593297722      0.774035010519041
H      -3.175320044620449      1.602532995654034      0.282085842281705
H      -2.356584674943895      0.638439024736505      1.543619275444321
H      -1.198779640146795     -1.674697104720639     -0.829154337191031
N       0.688871293483855      0.295452746779055      1.269773773462599
C       1.600616051924078      0.077151967122959      0.226106821711675
F       1.231812601410390     -0.994405881807342     -0.495408806069279
F       1.662125760882032      1.141945284340655     -0.574230717883666
F       2.872696559828635     -0.170157701607051      0.636107005723724
H       0.618633268936608     -0.523820992155252      1.862386727747503
H       0.955937210701690      1.108716172858061      1.812325795214814
