15
-622.672770609426
C	-2.3430191637	0.9584619568	0.6672956433	
C	-1.4293362191	0.1599989899	-0.2153190676	
O	-1.2652170311	0.2385882868	-1.3890731460	
O	-1.6389661682	-1.4595540212	0.3504568589	
H	-3.3589987976	0.8413371840	0.2854544787	
H	-2.0532359821	2.0092916227	0.5972996786	
H	-2.3095686163	0.6213125897	1.7029041501	
H	-1.5272803512	-1.9947663202	-0.4477081459	
N	0.0992886891	-0.0250665967	0.7793752135	
C	1.3081018654	0.0555138899	0.0686156683	
F	1.3664020446	-0.9041275363	-0.8613916695	
F	1.4741481940	1.2371311288	-0.5509121930	
F	2.3718621856	-0.0977308476	0.8859041938	
H	-0.5752890322	-1.1241402317	0.7807549339	
H	0.1364494679	0.5507963382	1.6130919788	
