10

N       1.349002065984514     -0.922237570340299      0.293983454151809
C       1.436232321692817      0.286913698621446      0.179601348739738
O       1.398464522574111      1.436390185020708      0.041951143500152
H       2.122218601111892     -1.492629544610731      0.598301027779578
O      -1.440902032681777     -0.491901814481035     -0.857049489112724
H      -0.738032729878434     -1.082470009470535     -0.562577567010007
C      -2.178135462287381     -0.078870140670353      0.279177783515909
H      -1.542495294656579      0.412383914884989      1.028242319943953
H      -2.920656537778539      0.644028425924168     -0.063070110832243
H      -2.702113949932427     -0.916495215557300      0.757915484831988
10

N       1.462330524927590     -0.978881171361631     -0.027486325427267
C       0.534591610737630      0.018114577971801     -0.024494630511352
O       0.773055157797123      1.190215444425484      0.142100918134045
H       2.426843863982994     -0.705084314148385     -0.086215435910526
O      -0.701086346295825     -0.497456627311509     -0.210273031360009
H       1.194115038995181     -1.901409495179220     -0.321433300402153
C      -1.779278530803029      0.409476707189084      0.033805155443001
H      -1.898731563673635      0.565221127537118      1.109035759197625
H      -1.596293585720318      1.368070730964708     -0.451842446391138
H      -2.668430234293000     -0.067368538864171     -0.376321419363049
