10

N      -0.632595414105079     -0.593401424935162     -0.008110626032064
C       0.514334415476979      0.121413683215172      0.022362089783561
O       0.620220925771949      1.327821294127699      0.031534119863821
C      -1.946169871254526      0.015255372280141      0.002137489129538
O       1.588465478788439     -0.713245119222977      0.039135826890460
H      -0.543527285141421     -1.594997897788986      0.001112114840433
H       2.365367351342800     -0.139029146904115      0.041964120691978
H      -2.527506142000985     -0.304743706139403     -0.867490630146964
H      -2.495419826099223     -0.242079359862388      0.913637824813021
H      -1.817583957368422      1.096889939020357     -0.036393766685578
10

N      -0.759792603417663     -0.191638270721201     -0.049740204543686
C      -0.014387057427521      0.756545514097461      0.012769894265347
O       0.782543649935981      1.603779324850297      0.053130357902198
C      -2.208215468058863     -0.288709717478192     -0.011659023018532
O       2.074361060668409     -1.423966478616201      0.117320657507430
H       1.126577560930240     -1.531039662916854     -0.018633354568502
H       2.454072693056026     -1.381854548217020     -0.764307690041085
H      -2.551246050752534     -0.859701036126316     -0.876281488808266
H      -2.512796275920972     -0.816498900570192      0.893585097488681
H      -2.679436850676638      0.695718153517429     -0.025521832046826
