15

C       1.903378395503344     -0.240697037681037      0.004832904308252
C       0.969221313651378      0.886186642475242     -0.493127834367656
O       0.449149449583861      0.857587170230863     -1.565781834037217
O       0.932126552095812      1.900992996518585      0.374924764419230
F       3.157727367643956      0.076525402202250     -0.350610150168757
F       1.582998937799805     -1.398402781179098     -0.563279463996959
F       1.884933783817082     -0.401485206357781      1.332422191486348
H       0.392409617637978      2.597309771397145     -0.030565874887161
N      -0.965590286806165     -0.350319730622774      1.013991324091009
C      -2.105004833967809     -0.323019527042253      0.194317001328175
F      -2.303847385131322      0.914684652415019     -0.283712250370387
F      -1.954721979254694     -1.166652774466400     -0.828119029635255
F      -3.249397466721402     -0.673529729403830      0.830847908766709
H      -1.063819132962545      0.277419995562234      1.803946822378737
H      -0.774591057770797     -1.293009762659102      1.334280884563292
15

C       1.766838704982528     -0.420177475206725      0.042219131026183
C       0.396200738128021      0.122842224365611     -0.427665709556842
O       0.275816787439705      0.668104163349841     -1.487763949001379
O       0.979261680514614      2.385812060099515      0.989333094093325
F       2.766756014297430      0.328338839114523     -0.391909085473355
F       1.899341184608150     -1.655271962018262     -0.473724631305178
F       1.847521088077651     -0.532886695859930      1.376303447173693
H       1.255770373442759      2.836191207253451      0.183768580735379
N      -0.628477606829447     -0.210246175804129      0.422705157934453
C      -1.974440714819468     -0.236922326547717     -0.014829402009314
F      -2.396699272553963      0.952422895932673     -0.439782431739137
F      -2.158289064373448     -1.111013160014280     -1.009525064226202
F      -2.737366308842155     -0.615506283428510      1.018757736890983
H       0.094647886637732      2.720029919508804      1.170877227521142
H      -0.428870084850934     -0.676576386082813      1.294872696677771
