15
-920.428066496247
C	1.7914930200	-0.3483445456	0.0386592748	
C	0.5596925320	0.5038983464	-0.3454458152	
O	0.2968026211	0.7684406557	-1.4884991922	
O	0.6936965566	1.8041463284	0.6876214198	
F	2.9066532970	0.2327550818	-0.3813999862	
F	1.6839682331	-1.5525536714	-0.5324213960	
F	1.8844080242	-0.5418201147	1.3689720806	
H	0.5274174748	2.5705459368	0.1200472164	
N	-0.6636167715	0.0345540128	0.6653510957	
C	-1.9376357508	-0.1832599867	0.0541560164	
F	-2.3933816357	0.9457687159	-0.4775020420	
F	-1.8889668980	-1.1181611558	-0.8920687600	
F	-2.8080928894	-0.5945284208	0.9894235117	
H	-0.3142492120	1.1805780455	1.0608023774	
H	-0.4275028675	-0.7340286873	1.2879639322	
