14

C      -1.502437972093138      0.899268948689231      0.755541355604728
C      -0.267013907317017      0.610227033584086     -0.046774494979834
O      -0.259048490874219      0.308884934182114     -1.219466340891301
O      -0.940212790864368     -2.331207944399802     -0.213698855912874
H      -2.237755856609553      1.395832303107766      0.122273239010598
H      -1.275914855035345      1.496656649721890      1.637887653076243
H      -1.912249551854968     -0.065329489736405      1.072716019818395
H      -0.818643498106421     -1.708391647901921     -0.942928264862660
O       0.845076329996663      0.678899101871454      0.693979494559728
C       2.050659286633371      0.291158194381475      0.023853169779750
H       1.969985287494785     -0.741816640720472     -0.322886386848440
H       2.240693593723170      0.944385294561937     -0.830648547761223
H       2.842588691653251      0.385440792536031      0.765685762645389
H      -0.530952650437574     -3.152441578606756     -0.499975402229140
14

C      -1.625647939680325      0.714283241690587      0.662886815504282
C      -0.946299353692566     -0.039627668219917     -0.441088170025933
O      -0.504975193783087      0.431397187064176     -1.455622605566739
O      -0.915958721155328     -1.380744053840453     -0.212581592688884
H      -2.699638668847367      0.734855927257646      0.451915309579999
H      -1.245825119054252      1.734248055134309      0.681695099364586
H      -1.465506819551716      0.230413693491298      1.625475127396978
H      -0.549941115509031     -1.779112047969800     -1.016855372728500
O       1.330575132690724      0.042260341671832      1.116799940623278
C       2.323784781425189      0.304187204944048      0.133985514049987
H       1.941325361473435      0.149091078023936     -0.882446206081120
H       2.603723765436169      1.354799076689652      0.239390609257120
H       3.218576938022959     -0.311926935589132      0.289235630839201
H       1.094512964020928     -0.889463849683535      1.073930488169097
