14
-344.770698446076
C	-1.5623331795	0.7530332082	0.7045831590	
C	-0.5514392745	0.1983424926	-0.2498201679	
O	-0.3307467437	0.5008903245	-1.3817184781	
O	-0.6589721526	-1.5215569335	0.0010327333	
H	-2.5534653634	0.6229781034	0.2661830264	
H	-1.3589449491	1.8188541127	0.8284958547	
H	-1.5128244205	0.2512429636	1.6686664445	
H	-0.5050666096	-1.8799779758	-0.8826616452	
O	0.8380798844	-0.0406707360	0.7209481987	
C	2.0617398059	0.2746905802	0.0722373499	
H	1.8994286890	0.3945779067	-1.0044333814	
H	2.4549530151	1.2067406351	0.4856741789	
H	2.7826904380	-0.5283085094	0.2475426041	
H	0.3700260687	-1.1274955488	0.4968756798	
