22

C       2.946814715510957     -1.110502544062146     -0.516566479832987
C       1.699265575798941     -0.259696854194672     -0.535932840068648
O       1.545065396498541      0.676627098865879     -1.291820560639065
O       2.944425599736892      1.437894197616795      1.462270307228615
H       3.763339639722443     -0.553831017065084     -0.973297047703645
H       2.764822814591294     -2.017109115301769     -1.103107625386222
H       3.223489061649817     -1.393588621515345      0.501219722169754
H       2.831517249232477      1.849471345127488      0.598291800760846
N       0.736256154990399     -0.643412877582012      0.380651348441040
C      -0.637111657115545     -0.310687985693548      0.234799184505485
H       2.054772470942334      1.166911985305557      1.713150822306904
H       0.914301315381020     -1.519378072843475      0.849185427899222
C      -1.052872527011087      1.000855958142707      0.024458807120583
C      -2.402289044108315      1.263101440137088     -0.178433793337131
C      -3.337426118999622      0.235171675450644     -0.159585322056163
C      -2.919112953067576     -1.067824314453740      0.080569891816803
C      -1.573273249319819     -1.340436151829441      0.275643569503896
H      -0.324576411899215      1.801238112260628     -0.007251596049104
H      -2.723542575143319      2.284735291263883     -0.355665216852016
H      -4.388436544564767      0.448359120783688     -0.325466922931593
H      -3.639515365357985     -1.879583828490692      0.101038854502881
H      -1.240986331576982     -2.363521685649227      0.433665187676953
22

C       3.022424247407028     -1.030446558674338     -0.552465205140144
C       2.431367613289288      0.347748289469217     -0.502390659671148
O       1.716276891733784      0.841045629445131     -1.331830880713137
O       2.845059776000717      1.050676574347019      0.588324788338493
H       3.963643080522215     -0.977754416548686     -1.108847795854063
H       2.333864337255841     -1.688926123615213     -1.078753628972211
H       3.228975855096971     -1.408265158941497      0.448247938722174
H       2.498610299910384      1.948137746808270      0.471559485135078
N       0.457421055187659     -0.689342250376474      1.180248356363122
C      -0.796970347405005     -0.373523613180106      0.639431500484398
H       0.888072365452241      0.059908227539511      1.703127159559466
H       0.461862925252644     -1.547792261644882      1.711339966163287
C      -1.128517937823226      0.942660911701551      0.312851564999570
C      -2.379167072200262      1.237100144618985     -0.211909454146389
C      -3.312680951070767      0.230187421366550     -0.432628545247957
C      -2.968247489087865     -1.084473440950297     -0.140705920821568
C      -1.720700531690418     -1.387789788449746      0.384535473094020
H      -0.401637343007504      1.734281858983920      0.470243919925781
H      -2.626136237703715      2.267768507312244     -0.449916393425179
H      -4.292118147554103      0.465459527493399     -0.836613630657761
H      -3.679920364046269     -1.885705406936373     -0.317380963686221
H      -1.461097018222622     -2.418215415317435      0.615522070195254
