22
-516.654699604645
C	2.9288841810	-1.0929083165	-0.5154068878	
C	1.8912505131	-0.0056891924	-0.4033880861	
O	1.5097968001	0.7061596050	-1.2955479863	
O	2.5778050457	0.9538369372	1.0212264134	
H	3.8019371824	-0.6765022887	-1.0179327488	
H	2.5183324924	-1.9010651737	-1.1297149413	
H	3.2297575605	-1.4751375826	0.4608391384	
H	2.5510084972	1.8697487451	0.7225773105	
N	0.7823106122	-0.4163705476	0.7182290888	
C	-0.5924250066	-0.2099829394	0.3890045082	
H	1.4062158989	0.3919974244	1.3076408561	
H	0.9490379584	-1.3561142328	1.0635663149	
C	-1.0543825395	1.0749056927	0.1272782720	
C	-2.3893399244	1.2642589123	-0.2038062137	
C	-3.2618230211	0.1838794206	-0.2684228316	
C	-2.7935764136	-1.0972479959	-0.0038810207	
C	-1.4577489922	-1.2961126964	0.3186030116	
H	-0.3696772747	1.9133333265	0.1718417049	
H	-2.7493474729	2.2665195414	-0.4130581838	
H	-4.3046145604	0.3403331868	-0.5247255596	
H	-3.4671268538	-1.9468877083	-0.0522945171	
H	-1.0871625551	-2.2989503589	0.5172579742	
