14

C      -2.225153079527507      0.891218046087613      0.930707737752669
C      -1.116547373229231      0.603290522889777     -0.028903329699690
O      -1.186205773896917      0.458608829889953     -1.209533468380086
O      -1.627656798956635     -2.263360495128382      0.206915119521238
H      -3.115195384442624      1.175039378950044      0.372633395976384
H      -1.935480230193389      1.676813321709833      1.629970596020615
H      -2.418366588957921     -0.026345705268946      1.491572354392519
H      -1.564445007166258     -2.054891959508330     -0.731484643928925
O       0.086440436322343      0.504712087751566      0.668112673461630
C       1.220893095590994      0.173561954135196     -0.018804130748594
F       1.122673169712389     -1.022367251128266     -0.610751221628003
F       1.539316780919101      1.075253805660083     -0.942923671939238
F       2.208185598425385      0.113741252648102      0.870265483259286
H      -0.822664361439588     -2.748360124983174      0.406718565604626
14

C      -2.504494236018224      1.096005572241593      0.522946018938647
C      -2.145413249760264      0.086145703496386     -0.525366720980961
O      -2.396182857691874      0.133976546312569     -1.693856608884504
O      -1.455562415577237     -0.971887300292119      0.009513259637488
H      -3.050815588679848      0.611098107993144      1.334669841377842
H      -3.109064055309390      1.880969932437985      0.073918602591060
H      -1.590124432975659      1.525968198967769      0.941017261544248
H      -1.240006976636749     -1.565481569643968     -0.727298671514036
O       0.905401669723713     -0.350087428472567      1.396042530712165
C       1.609756468731162     -0.049332638101657      0.299807294229024
F       1.562297453964412     -1.035234451689439     -0.623766377283790
F       1.152178048667488      1.061113955080258     -0.318273486378116
F       2.877968322430655      0.155314936063891      0.627207245472429
H       0.014205005392846     -0.629793426583199      1.111017566304314
