14
-642.567272337748
C	-2.3051513324	0.8786094778	0.8354788353	
C	-1.5601910031	0.2054162131	-0.2516284893	
O	-1.3960165577	0.3241529402	-1.3890179612	
O	-1.4998446157	-1.5066958094	0.2816583069	
H	-3.3711975942	0.7469517987	0.6317812936	
H	-2.0439072041	1.9369561676	0.7940232794	
H	-2.0442136233	0.4660215161	1.8049671111	
H	-1.2519375470	-2.0022533267	-0.5145024403	
O	0.1986524562	0.0756029323	0.8296096585	
C	1.2748110824	0.0834408807	0.1089093252	
F	1.3137803105	-0.9667418770	-0.7901097016	
F	1.4116603958	1.2012482975	-0.6476971634	
F	2.4085645416	-0.0261812223	0.8358172632	
H	-0.6170197944	-1.2302674343	0.7221102587	
