21

C       2.025570588059586     -0.679425604679893      0.237077670122952
C       2.300499930810076      0.709666061535148     -0.051019297099167
O       3.377707753263941     -0.231475552941465     -0.062193321353536
H       1.562577948616544     -1.300110973855834     -0.519527443894396
H       1.839004212396840     -0.975178873010119      1.261272040006377
H       2.032001838087453      1.122688763647712     -1.023325486943232
H       2.308541597169059      1.427120655272135      0.768842857556135
O      -0.501990968427841     -0.656659203775383      0.843616199123900
C      -1.389869252855088     -0.027912009953202      0.054210474362199
C      -1.167442116612189     -0.358440427734803     -1.452754293180764
C      -1.300657499847808      1.520601410282492      0.201590201997988
C      -2.842731890177043     -0.447822964465911      0.410883145443413
H      -2.044288034990776      2.068029216839479     -0.399610794532318
H      -0.299184859033983      1.854884374163923     -0.094315901290003
H      -1.440619418409354      1.776616848364774      1.258438127298706
H      -0.168336513613653     -0.021040648934756     -1.754953724745703
H      -1.907506671766320      0.107238028822330     -2.122225192682428
H      -1.208775859646101     -1.446926282391923     -1.579717301585063
H      -3.026645913830309     -0.207560219531592      1.464971320056658
H      -3.614447166272036      0.039177450554413     -0.207571027454118
H      -2.928108793857455     -1.534822659732851      0.296757297862312
21

C       1.139071170468412     -0.777746537228967      0.331862690118502
C       2.069629115551545      0.430834925799509      0.052304890274426
O       3.313738942218615     -0.003300623895409     -0.141671995423970
H       1.128777742886416     -1.423694492962618     -0.558768297185796
H       1.619557697248371     -1.338850417397592      1.138805822351891
H       1.627279103866934      1.004175567583048     -0.825480210571666
H       1.915903545907972      1.137757663515661      0.927003633507205
O      -0.212186160608965     -0.572338661457016      0.813270712201326
C      -1.184834379095898      0.031226070381141     -0.021755856415498
C      -1.028707414761725     -0.348696271894662     -1.497034905803192
C      -1.148139168280076      1.557326721007821      0.140477519418417
C      -2.521385431741459     -0.504727775304225      0.500623631475080
H      -1.948683916934093      2.030713745341902     -0.442488044723590
H      -0.185679251164408      1.954210298394048     -0.189961716932736
H      -1.279406984550710      1.814427970289382      1.196450974729903
H      -0.095085803704749      0.046415012184762     -1.904703804477303
H      -1.864865189077246      0.062984985765210     -2.074134490190578
H      -1.028722328011810     -1.437358630749008     -1.615454499790804
H      -2.607980870514496     -0.294624363364955      1.571406076325329
H      -3.366575106272936     -0.041922550484362     -0.022510561249631
H      -2.568201726377482     -1.588879024627254      0.359022433057523
