21
-386.873693735905
C	1.6226889470	-0.6475509394	0.2995963988	
C	2.2189150731	0.6377403938	-0.0154880837	
O	3.3157251364	-0.2073142936	-0.0809744901	
H	1.4038427423	-1.3245140762	-0.5082485331	
H	1.7275452718	-1.0277408621	1.3005393659	
H	1.9121582650	1.1118490921	-0.9639135292	
H	2.2187710640	1.3877256412	0.7930312352	
O	-0.3521054271	-0.6313083590	0.8007925717	
C	-1.2910583763	-0.0120979145	0.0210965628	
C	-1.1192960559	-0.3491427567	-1.4799030077	
C	-1.2336497602	1.5263240912	0.1833234323	
C	-2.6954570229	-0.4867815876	0.4567737250	
H	-2.0058678741	2.0476539586	-0.4016897082	
H	-0.2511493949	1.8943765682	-0.1299565817	
H	-1.3641626535	1.7748604170	1.2424698949	
H	-0.1521954229	0.0160155403	-1.8419253792	
H	-1.9090225299	0.0948387935	-2.1024933284	
H	-1.1418868897	-1.4376699466	-1.6085912697	
H	-2.8329486032	-0.2601216019	1.5196934640	
H	-3.5060564135	-0.0135268525	-0.1173142010	
H	-2.7595868763	-1.5734938060	0.3328607935	
