8

N      -0.171765039489715     -1.300295261168572      0.000374394509578
C      -0.148637396385220      0.053742076540265     -0.001626703522702
O      -1.140413295406240      0.747608549006319     -0.001803199412661
H      -1.058265938307996     -1.774546933123632      0.000305380561447
N       1.207408839558213      0.557280680544850     -0.001929383734476
H       0.690404655273583     -1.814728666886460     -0.000244731881776
H       1.294363087701590      1.173718863887137     -0.805997062345470
H       1.294433702623206      1.168514098601383      0.806030037061582
8

N      -0.285338051800146     -1.396002067622795      0.011546525479318
C      -0.936522021320139     -0.366644669260559      0.007175776717230
O      -1.470701703128257      0.661855266447133      0.001179856862023
H      -0.732848453725959     -2.299310351413137      0.019263059551191
N       2.059935996964210      0.793347806120663      0.013743041164951
H       1.944244980144966     -0.214499714961630      0.017142901397159
H       2.569282225982020      1.042260795680081     -0.826467542525849
H       2.641613835656536      1.040386108877233      0.806173593459661
