60

N       1.250047000000000      0.964798000000000      1.327356000000000
C       1.963028000000000      1.505703000000000     -1.414569000000000
H       2.857585000000000      1.082237000000000     -0.927105000000000
H       2.173073000000000      1.805985000000000     -2.449920000000000
C       1.189640000000000      2.478849000000000     -0.637444000000000
C       0.757160000000000      2.200502000000000      0.707829000000000
C      -0.138968000000000      3.057934000000000      1.381298000000000
H      -0.430942000000000      2.844638000000000      2.412454000000000
C      -0.655759000000000      4.183887000000000      0.742134000000000
H      -1.349840000000000      4.842964000000000      1.271506000000000
C      -0.267060000000000      4.468786000000000     -0.582389000000000
H      -0.665289000000000      5.353291000000000     -1.089346000000000
C       0.628295000000000      3.638346000000000     -1.247821000000000
H       0.929454000000000      3.870940000000000     -2.274507000000000
C       0.399092000000000      0.442973000000000      2.421625000000000
H       0.416087000000000      1.094830000000000      3.314406000000000
H       0.772410000000000     -0.550937000000000      2.712718000000000
H      -0.647697000000000      0.354509000000000      2.079294000000000
C       2.662479000000000      1.080937000000000      1.778642000000000
H       3.278578000000000      1.487047000000000      0.964782000000000
H       3.040149000000000      0.087555000000000      2.064214000000000
H       2.724088000000000      1.762071000000000      2.646859000000000
Sc      0.433481000000000      0.099179000000000     -0.649468000000000
C       1.115507000000000     -2.863022000000000      0.403327000000000
C       2.278933000000000     -2.811104000000000      1.394081000000000
N       1.305464000000000     -1.937074000000000     -0.744235000000000
C       3.626296000000000     -3.032892000000000      0.692929000000000
C       3.786390000000000     -2.045785000000000     -0.471677000000000
C       2.608576000000000     -2.149273000000000     -1.438852000000000
C       0.124674000000000     -1.852896000000000     -1.610388000000000
H       0.158473000000000     -2.599816000000000      0.891777000000000
H       0.998742000000000     -3.890953000000000      0.002613000000000
H       2.286547000000000     -1.826415000000000      1.896167000000000
H       2.109029000000000     -3.568514000000000      2.178517000000000
H       4.455327000000000     -2.924700000000000      1.412896000000000
H       3.673408000000000     -4.068394000000000      0.305675000000000
H       3.849762000000000     -1.011303000000000     -0.084115000000000
H       4.720477000000000     -2.237418000000000     -1.026738000000000
H       2.682910000000000     -1.396839000000000     -2.242067000000000
H       2.585320000000000     -3.149194000000000     -1.918030000000000
H       0.419427000000000     -1.761879000000000     -2.671495000000000
H      -0.586813000000000     -2.680290000000000     -1.469154000000000
C      -2.185133000000000     -0.205469000000000     -1.296479000000000
H      -2.207198000000000     -0.699795000000000     -2.275222000000000
C      -1.755562000000000      1.090361000000000     -1.217466000000000
H      -1.876473000000000      1.681524000000000     -0.298960000000000
H      -1.438512000000000      1.640272000000000     -2.112758000000000
C      -2.849735000000000     -0.942843000000000     -0.164363000000000
H      -2.477785000000000     -1.982318000000000     -0.115358000000000
H      -2.612016000000000     -0.457541000000000      0.803187000000000
C      -4.387275000000000     -0.977017000000000     -0.341594000000000
H      -4.626563000000000     -1.440759000000000     -1.317503000000000
H      -4.766697000000000      0.060821000000000     -0.387470000000000
C      -5.094329000000000     -1.745898000000000      0.784185000000000
H      -4.696848000000000     -2.778748000000000      0.822265000000000
H      -4.838802000000000     -1.280722000000000      1.756411000000000
C      -6.617025000000000     -1.782572000000000      0.613046000000000
H      -7.094975000000000     -2.339636000000000      1.436480000000000
H      -7.041936000000000     -0.762978000000000      0.603487000000000
H      -6.899482000000000     -2.273415000000000     -0.335316000000000
60

N       1.780368150894993      1.378900540565869      1.679200853054599
C       2.039801311708280      1.646299146473787     -1.185604587795779
H       3.079725963978512      1.587834022391529     -0.818994097059788
H       2.016935719625728      1.816146461815824     -2.270858680594244
C       1.123729929773810      2.512462017974094     -0.427901329034796
C       0.927206070317341      2.357797572321126      0.989253087162745
C      -0.086510552858760      3.061144315430240      1.673530107973209
H      -0.201918260224215      2.944574627256355      2.753765776706979
C      -0.943026281380911      3.911595681141717      0.979212727220250
H      -1.725620430298677      4.455446238395685      1.515865356494745
C      -0.792112700152401      4.063775544863655     -0.413372563502498
H      -1.463617663854577      4.729002588341254     -0.965073390280374
C       0.209272653236165      3.379168678525631     -1.092642418045365
H       0.321682009068710      3.505839432044210     -2.174152733784124
C       1.220811897270550      0.836968516633127      2.941837464899409
H       1.200656714915077      1.595931768618568      3.744735583697743
H       1.858032054672907      0.001374466309121      3.274574266250321
H       0.191316936963228      0.476939428628742      2.773506366389486
C       3.180202516307167      1.840917676739436      1.882534893372678
H       3.557892308731851      2.296162008710919      0.957091610315831
H       3.814309724541414      0.982920129428081      2.159844774303864
H       3.211835227156759      2.595093856824972      2.689210378714767
Sc      1.024309963604465      0.071065586685619      0.013727946377038
C       1.748969151540094     -2.816248772116110      1.049766297323485
C       3.172127603118797     -2.289744515189526      0.832591154474915
N       0.825839924709833     -2.201470409862931      0.055946097630369
C       3.660829838497647     -2.573034621640044     -0.594763130456815
C       2.643817503179856     -2.044994609669753     -1.614967792451098
C       1.234058263714534     -2.575818397150400     -1.330888452517942
C      -0.614230470404904     -2.518674483396338      0.327997623244357
H       1.375604309159038     -2.563106494883514      2.057592622800879
H       1.723726480804715     -3.921019727560211      0.957340648571239
H       3.191746018878887     -1.189016683985965      1.018081360639467
H       3.849477696838097     -2.727607046424782      1.585090386360710
H       4.652981356124928     -2.121934261162771     -0.763911851410177
H       3.776992449119715     -3.664742605572957     -0.727705871460598
H       2.640051980780486     -0.925813306020929     -1.600351153097994
H       2.933388641578733     -2.306897338239526     -2.646441976908027
H       0.499620934380027     -2.143751050149363     -2.031600353853636
H       1.191959005736147     -3.677764571821979     -1.447243744938786
H      -0.815922716505248     -3.577189666823086      0.069440103724934
H      -0.756546185623738     -2.413912282504073      1.419723856706281
C      -1.562050916603145     -1.546931013590581     -0.398349985785532
H      -1.454499385496374     -1.710856448128409     -1.490425764127481
C      -1.145969013875975     -0.094110838924644     -0.081410352341605
H      -1.481747599961851      0.167614053502874      0.950912959055060
H      -1.634485192015734      0.636389630121110     -0.753199911263636
C      -3.024773592104671     -1.898976675059964     -0.040955171604850
H      -3.198473260047264     -2.976406040002054     -0.235295068031489
H      -3.166604790253933     -1.752071664831570      1.048937206228090
C      -4.067601264250515     -1.076514005456482     -0.806981282051873
H      -3.905227795562437     -1.206098224886279     -1.895854992509597
H      -3.912423212778278     -0.000761513494657     -0.598645165873705
C      -5.514356118693923     -1.456293647076906     -0.458832581089055
H      -5.668820500978847     -2.532525331185106     -0.668952334051418
H      -5.667640324933180     -1.333433798307609      0.631172318281579
C      -6.553987928256486     -0.627952376640034     -1.221835010734400
H      -7.581337652169417     -0.923154317536935     -0.948298126181829
H      -6.443373764477774      0.449773525588512     -1.002976658217977
H      -6.445208737165259     -0.759780776036574     -2.313646296918549
